nApps = 85
nRes = 6
nActs = 174
nNetworks = 4

assignmentToResources = [1,2,1,2,1,2,1,2,2,1,2,1,2,1,2,2,1,1,2,1,1,1,2,2,2,1,1,1,1,2,1,1,2,2,1,2,2,1,1,2,1,2,2,1,1,1,2,1,1,1,3,4,4,4,3,3,3,4,4,4,4,4,3,3,4,4,4,3,3,4,4,4,3,4,4,4,3,3,4,4,3,3,4,3,3,3,4,4,4,4,4,3,3,3,4,4,4,4,4,4,3,3,4,5,3,6,4,5,3,6,4,5,4,5,3,6,4,5,3,6,3,6,6,5,5,5,6,6,6,5,5,5,5,5,6,6,5,5,5,6,6,5,5,5,6,5,5,5,6,6,5,5,6,6,5,6,6,6,5,5,5,5,5,6,6,6,5,5,5,5,5,5,6,6];

processingTimes = [128,56,80,128,128,160,128,48,64,104,88,56,136,128,120,152,136,112,144,64,144,128,40,96,104,128,136,64,136,120,72,120,160,104,96,88,112,128,128,168,112,64,152,136,56,128,112,152,120,160,4,3,1000,4,8,19,3,4,4,4,1000,3,5,500,3,8,4,3,4,4,300,300,3,8,3,1000,5,5,3,1000,3,8,3,5,500,500,4,13,4,4,4,500,500,500,4,1000,3,4,1000,1000,3,3,3,3,4,4,5,5,3,3,5,5,4,4,3,3,4,4,5,5,4,4,4,3,1000,4,8,19,3,4,4,4,1000,3,5,500,3,8,4,3,4,4,300,300,3,8,3,1000,5,5,3,1000,3,8,3,5,500,500,4,13,4,4,4,500,500,500,4,1000,3,4,1000,1000,3,3];

periods = [20000,10000,1000,10000,100000,10000,20000,1000,20000,10000,10000,20000,2000,20000,20000,10000,20000,20000,20000,20000,10000,20000,10000,10000,100000,10000,10000,10000,100000,100000,50000,5000,50000,2000,20000,10000,100000,20000,10000,100000,20000,10000,100000,20000,20000,10000,100000,100000,20000,20000,20000,10000,10000,10000,1000,1000,1000,10000,10000,10000,10000,10000,20000,20000,20000,20000,20000,10000,10000,10000,2000,2000,20000,20000,20000,20000,20000,20000,10000,100000,10000,10000,100000,50000,5000,5000,50000,2000,2000,100000,100000,20000,20000,20000,10000,10000,10000,100000,100000,100000,10000,20000,100000,100000,100000,100000,20000,20000,10000,10000,10000,10000,20000,20000,20000,20000,10000,10000,10000,10000,100000,100000,20000,10000,10000,10000,1000,1000,1000,10000,10000,10000,10000,10000,20000,20000,20000,20000,20000,10000,10000,10000,2000,2000,20000,20000,20000,20000,20000,20000,10000,100000,10000,10000,100000,50000,5000,5000,50000,2000,2000,100000,100000,20000,20000,20000,10000,10000,10000,100000,100000,100000,10000,20000];

assignmentToClusters = [1,2,3,4,5,6,7,8,9,10,11,12,13,12,7,14,15,16,12,17,14,18,19,11,20,19,21,22,20,5,23,24,25,26,27,11,20,12,11,20,28,19,20,29,30,31,5,32,33,7,34,35,36,37,38,39,40,41,42,43,44,45,46,47,48,49,50,51,52,53,54,55,56,57,58,59,60,61,62,63,64,65,66,67,68,69,70,71,72,73,74,75,76,77,78,79,80,81,82,83,84,85,5,5,5,5,7,7,11,11,11,11,12,12,12,12,14,14,19,19,20,20,34,35,36,37,38,39,40,41,42,43,44,45,46,47,48,49,50,51,52,53,54,55,56,57,58,59,60,61,62,63,64,65,66,67,68,69,70,71,72,73,74,75,76,77,78,79,80,81,82,83,84,85];

precedenceAdjList = [[],[],[],[],[103],[],[107],[],[],[],[109],[37],[],[],[],[],[],[],[115],[],[117],[],[119],[10],[36],[],[],[],[],[],[],[],[],[],[],[],[39],[113],[111],[121],[],[22],[39],[],[],[],[105],[],[],[6],[],[],[],[],[],[],[],[],[],[],[],[],[],[],[],[],[],[],[],[],[],[],[],[],[],[],[],[],[],[],[],[],[],[],[],[],[],[],[],[],[],[],[],[],[],[],[],[],[],[],[],[],[29],[102],[4],[104],[14],[106],[38],[108],[35],[110],[18],[112],[13],[114],[15],[116],[25],[118],[28],[120],[50],[51],[52],[53],[54],[55],[56],[57],[58],[59],[60],[61],[62],[63],[64],[65],[66],[67],[68],[69],[70],[71],[72],[73],[74],[75],[76],[77],[78],[79],[80],[81],[82],[83],[84],[85],[86],[87],[88],[89],[90],[91],[92],[93],[94],[95],[96],[97],[98],[99],[100],[101]];